c created by edge2cnf
p cnf 100 399
-1 -97 0
-1 -51 0
-1 -15 0
-1 -25 0
-1 -66 0
-1 -52 0
-1 -31 0
-1 -45 0
-1 -30 0
-1 -64 0
-2 -6 0
-2 -94 0
-2 -16 0
-2 -85 0
-3 -4 0
-3 -7 0
-3 -41 0
-3 -44 0
-3 -66 0
-3 -13 0
-3 -16 0
-3 -8 0
-4 -78 0
-4 -76 0
-5 -84 0
-5 -19 0
-5 -58 0
-5 -25 0
-5 -97 0
-5 -64 0
-5 -99 0
-5 -65 0
-5 -80 0
-6 -10 0
-6 -7 0
-6 -74 0
-6 -24 0
-6 -45 0
-6 -27 0
-6 -88 0
-6 -70 0
-6 -49 0
-7 -68 0
-7 -53 0
-7 -87 0
-7 -84 0
-7 -85 0
-7 -43 0
-7 -50 0
-7 -88 0
-7 -19 0
-8 -11 0
-8 -12 0
-8 -10 0
-8 -76 0
-8 -40 0
-8 -84 0
-8 -33 0
-8 -35 0
-8 -36 0
-9 -12 0
-9 -99 0
-9 -42 0
-9 -25 0
-9 -80 0
-10 -13 0
-10 -90 0
-10 -94 0
-10 -34 0
-10 -91 0
-10 -68 0
-10 -88 0
-11 -13 0
-11 -25 0
-11 -99 0
-11 -72 0
-11 -59 0
-12 -13 0
-12 -15 0
-12 -16 0
-12 -29 0
-12 -48 0
-12 -71 0
-12 -70 0
-12 -73 0
-12 -67 0
-13 -16 0
-13 -88 0
-13 -44 0
-13 -30 0
-13 -52 0
-13 -89 0
-13 -28 0
-14 -16 0
-14 -36 0
-14 -23 0
-14 -57 0
-14 -72 0
-14 -69 0
-14 -87 0
-15 -17 0
-15 -51 0
-15 -64 0
-15 -28 0
-15 -35 0
-15 -31 0
-16 -17 0
-16 -20 0
-16 -87 0
-16 -99 0
-16 -94 0
-16 -82 0
-16 -71 0
-16 -83 0
-16 -23 0
-16 -79 0
-17 -23 0
-17 -79 0
-17 -27 0
-17 -98 0
-18 -21 0
-18 -29 0
-18 -24 0
-18 -37 0
-18 -23 0
-18 -25 0
-18 -58 0
-18 -42 0
-18 -26 0
-18 -31 0
-19 -21 0
-19 -82 0
-19 -85 0
-19 -58 0
-19 -66 0
-20 -23 0
-20 -24 0
-20 -28 0
-20 -73 0
-20 -60 0
-21 -25 0
-21 -92 0
-21 -93 0
-21 -49 0
-21 -88 0
-21 -54 0
-21 -47 0
-22 -25 0
-22 -50 0
-22 -67 0
-22 -92 0
-22 -31 0
-23 -25 0
-23 -27 0
-23 -26 0
-23 -99 0
-23 -69 0
-23 -100 0
-23 -38 0
-24 -28 0
-24 -25 0
-24 -84 0
-24 -74 0
-25 -29 0
-25 -28 0
-25 -27 0
-25 -37 0
-25 -33 0
-25 -35 0
-25 -97 0
-25 -87 0
-25 -84 0
-25 -58 0
-26 -32 0
-26 -47 0
-26 -59 0
-26 -63 0
-26 -99 0
-26 -42 0
-26 -69 0
-26 -36 0
-27 -31 0
-27 -96 0
-28 -32 0
-28 -31 0
-28 -52 0
-28 -82 0
-28 -72 0
-28 -83 0
-28 -38 0
-28 -96 0
-28 -48 0
-28 -97 0
-29 -32 0
-29 -33 0
-29 -64 0
-29 -94 0
-29 -72 0
-29 -50 0
-30 -64 0
-30 -75 0
-30 -100 0
-30 -62 0
-30 -37 0
-31 -34 0
-31 -90 0
-32 -34 0
-32 -33 0
-32 -49 0
-32 -59 0
-32 -48 0
-33 -37 0
-33 -78 0
-33 -51 0
-33 -80 0
-33 -56 0
-34 -38 0
-34 -80 0
-34 -66 0
-35 -37 0
-35 -81 0
-36 -100 0
-36 -47 0
-36 -68 0
-37 -39 0
-37 -70 0
-37 -93 0
-37 -99 0
-37 -92 0
-37 -80 0
-37 -60 0
-38 -52 0
-38 -68 0
-38 -73 0
-39 -72 0
-39 -93 0
-40 -44 0
-40 -82 0
-40 -90 0
-40 -53 0
-40 -54 0
-41 -45 0
-41 -44 0
-41 -59 0
-41 -67 0
-41 -84 0
-41 -92 0
-41 -57 0
-41 -55 0
-42 -45 0
-42 -94 0
-43 -61 0
-43 -80 0
-43 -84 0
-44 -97 0
-45 -48 0
-45 -67 0
-45 -68 0
-45 -82 0
-45 -55 0
-45 -78 0
-46 -90 0
-46 -68 0
-47 -48 0
-47 -49 0
-47 -69 0
-47 -90 0
-47 -74 0
-48 -50 0
-48 -88 0
-48 -65 0
-48 -55 0
-48 -93 0
-48 -81 0
-48 -74 0
-48 -62 0
-49 -52 0
-49 -69 0
-50 -66 0
-50 -60 0
-50 -91 0
-50 -55 0
-50 -95 0
-50 -79 0
-50 -72 0
-51 -73 0
-51 -90 0
-52 -66 0
-52 -74 0
-52 -89 0
-53 -55 0
-54 -94 0
-54 -70 0
-54 -90 0
-55 -59 0
-55 -58 0
-56 -59 0
-57 -59 0
-57 -75 0
-57 -63 0
-58 -63 0
-58 -91 0
-59 -62 0
-59 -63 0
-59 -75 0
-59 -64 0
-59 -89 0
-59 -73 0
-59 -97 0
-59 -96 0
-60 -64 0
-60 -63 0
-60 -69 0
-61 -64 0
-61 -100 0
-61 -72 0
-62 -68 0
-62 -93 0
-63 -64 0
-63 -70 0
-63 -80 0
-64 -67 0
-64 -93 0
-64 -94 0
-64 -92 0
-64 -70 0
-64 -88 0
-65 -68 0
-65 -86 0
-65 -97 0
-65 -87 0
-66 -68 0
-66 -94 0
-66 -98 0
-66 -78 0
-67 -68 0
-67 -81 0
-67 -88 0
-68 -77 0
-68 -87 0
-68 -75 0
-69 -72 0
-69 -77 0
-70 -72 0
-70 -83 0
-70 -94 0
-70 -88 0
-71 -89 0
-71 -80 0
-71 -100 0
-71 -96 0
-72 -76 0
-73 -80 0
-75 -79 0
-75 -86 0
-75 -100 0
-75 -83 0
-76 -80 0
-76 -88 0
-77 -79 0
-78 -82 0
-78 -100 0
-78 -83 0
-79 -82 0
-79 -80 0
-79 -88 0
-80 -96 0
-80 -100 0
-80 -98 0
-80 -99 0
-81 -83 0
-81 -84 0
-81 -91 0
-82 -96 0
-82 -93 0
-83 -89 0
-85 -87 0
-85 -92 0
-86 -89 0
-86 -88 0
-86 -87 0
-87 -92 0
-89 -90 0
-90 -92 0
-91 -94 0
-91 -92 0
-91 -93 0
-92 -95 0
-92 -96 0
-93 -97 0
-93 -94 0
-94 -96 0
-94 -97 0
-94 -95 0
-94 -98 0
-94 -100 0
-95 -98 0
-96 -97 0
-99 -100 0
